64
Lattice="7.134 0.0 0.0 0.0 7.134 0.0 0.0 0.0 7.134" pbc="T T T"
C 0.000000 0.000000 0.000000
C 0.891750 0.891750 0.891750
C 0.000000 1.783500 1.783500
C 0.891750 2.675250 2.675250
C 1.783500 0.000000 1.783500
C 2.675250 0.891750 2.675250
C 1.783500 1.783500 0.000000
C 2.675250 2.675250 0.891750
C 0.000000 0.000000 3.567000
C 0.891750 0.891750 4.458750
C 0.000000 1.783500 5.350500
C 0.891750 2.675250 6.242250
C 1.783500 0.000000 5.350500
C 2.675250 0.891750 6.242250
C 1.783500 1.783500 3.567000
C 2.675250 2.675250 4.458750
C 0.000000 3.567000 0.000000
C 0.891750 4.458750 0.891750
C 0.000000 5.350500 1.783500
C 0.891750 6.242250 2.675250
C 1.783500 3.567000 1.783500
C 2.675250 4.458750 2.675250
C 1.783500 5.350500 0.000000
C 2.675250 6.242250 0.891750
C 0.000000 3.567000 3.567000
C 0.891750 4.458750 4.458750
C 0.000000 5.350500 5.350500
C 0.891750 6.242250 6.242250
C 1.783500 3.567000 5.350500
C 2.675250 4.458750 6.242250
C 1.783500 5.350500 3.567000
C 2.675250 6.242250 4.458750
C 3.567000 0.000000 0.000000
C 4.458750 0.891750 0.891750
C 3.567000 1.783500 1.783500
C 4.458750 2.675250 2.675250
C 5.350500 0.000000 1.783500
C 6.242250 0.891750 2.675250
C 5.350500 1.783500 0.000000
C 6.242250 2.675250 0.891750
C 3.567000 0.000000 3.567000
C 4.458750 0.891750 4.458750
C 3.567000 1.783500 5.350500
C 4.458750 2.675250 6.242250
C 5.350500 0.000000 5.350500
C 6.242250 0.891750 6.242250
C 5.350500 1.783500 3.567000
C 6.242250 2.675250 4.458750
C 3.567000 3.567000 0.000000
C 4.458750 4.458750 0.891750
C 3.567000 5.350500 1.783500
C 4.458750 6.242250 2.675250
C 5.350500 3.567000 1.783500
C 6.242250 4.458750 2.675250
C 5.350500 5.350500 0.000000
C 6.242250 6.242250 0.891750
C 3.567000 3.567000 3.567000
C 4.458750 4.458750 4.458750
C 3.567000 5.350500 5.350500
C 4.458750 6.242250 6.242250
C 5.350500 3.567000 5.350500
C 6.242250 4.458750 6.242250
C 5.350500 5.350500 3.567000
C 6.242250 6.242250 4.458750

