68
iter=0 energy_Eh=-108.9422454378550071 grad_max_Eh_per_bohr=2.83144667e-2 scf_converged=true
Fe       0.0000000000       0.0000000000       0.0000000000
C        1.2100000000       0.0000000000       1.6600000000
C        0.3739110000       1.1507780000       1.6600000000
C       -0.9789110000       0.7112200000       1.6600000000
C       -0.9789110000      -0.7112200000       1.6600000000
C        0.3739110000      -1.1507780000       1.6600000000
C        1.2100000000       0.0000000000      -1.6600000000
C        0.3739110000       1.1507780000      -1.6600000000
C       -0.9789110000       0.7112200000      -1.6600000000
C       -0.9789110000      -0.7112200000      -1.6600000000
C        0.3739110000      -1.1507780000      -1.6600000000
H        0.7076490000       2.1779190000       1.6600000000
H       -1.8526490000       1.3460280000       1.6600000000
H       -1.8526490000      -1.3460280000       1.6600000000
H        0.7076490000      -2.1779190000       1.6600000000
H        0.7076490000       2.1779190000      -1.6600000000
H       -1.8526490000       1.3460280000      -1.6600000000
H       -1.8526490000      -1.3460280000      -1.6600000000
H        0.7076490000      -2.1779190000      -1.6600000000
P        3.0000000000       0.0000000000       1.7500000000
P        3.0000000000       0.0000000000      -1.7500000000
Pd       4.4900000000       0.0000000000       0.0000000000
Cl       6.2769540000       0.0000000000       1.5262030000
Cl       6.2769540000       0.0000000000      -1.5262030000
C        3.4186930000       1.4944540000       2.7196410000
C        4.6675880000       2.0878680000       2.5774400000
C        4.9856120000       3.2230000000       3.3139430000
C        4.0547410000       3.7647180000       4.1926470000
C        2.8058460000       3.1713030000       4.3348480000
C        2.4878220000       2.0361720000       3.5983450000
H        5.3908550000       1.6669650000       1.8947050000
H        5.9559760000       3.6840700000       3.2034560000
H        4.3018380000       4.6466900000       4.7648940000
H        2.0825790000       3.5922060000       5.0175820000
H        1.5174580000       1.5751020000       3.7088320000
C        3.4186930000      -1.4944540000       2.7196410000
C        3.1471520000      -2.7562920000       2.2037620000
C        3.4651760000      -3.8914240000       2.9402650000
C        4.0547410000      -3.7647180000       4.1926470000
C        4.3262820000      -2.5028800000       4.7085250000
C        4.0082580000      -1.3677480000       3.9720220000
H        2.6890730000      -2.8547400000       1.2306890000
H        3.2541950000      -4.8718450000       2.5394390000
H        4.3018380000      -4.6466900000       4.7648940000
H        4.7843610000      -2.4044320000       5.6815980000
H        4.2192390000      -0.3873270000       4.3728480000
C        3.4186930000       1.4944540000      -2.7196410000
C        4.0082580000       1.3677480000      -3.9720220000
C        4.3262820000       2.5028800000      -4.7085250000
C        4.0547410000       3.7647180000      -4.1926470000
C        3.4651760000       3.8914240000      -2.9402650000
C        3.1471520000       2.7562920000      -2.2037620000
H        4.2192390000       0.3873270000      -4.3728480000
H        4.7843610000       2.4044320000      -5.6815980000
H        4.3018380000       4.6466900000      -4.7648940000
H        3.2541950000       4.8718450000      -2.5394390000
H        2.6890730000       2.8547400000      -1.2306890000
C        3.4186930000      -1.4944540000      -2.7196410000
C        2.4878220000      -2.0361720000      -3.5983450000
C        2.8058460000      -3.1713030000      -4.3348480000
C        4.0547410000      -3.7647180000      -4.1926470000
C        4.9856120000      -3.2230000000      -3.3139430000
C        4.6675880000      -2.0878680000      -2.5774400000
H        1.5174580000      -1.5751020000      -3.7088320000
H        2.0825790000      -3.5922060000      -5.0175820000
H        4.3018380000      -4.6466900000      -4.7648940000
H        5.9559760000      -3.6840700000      -3.2034560000
H        5.3908550000      -1.6669650000      -1.8947050000