144
water cluster 48
O 0.0000 0.0000 0.0000
H 0.7570 0.5860 0.0000
H -0.7570 0.5860 0.0000
O 0.0000 0.0000 3.1000
H 0.7570 0.5860 3.1000
H -0.7570 0.5860 3.1000
O 0.0000 0.0000 6.2000
H 0.7570 0.5860 6.2000
H -0.7570 0.5860 6.2000
O 0.0000 3.1000 0.0000
H 0.7570 3.6860 0.0000
H -0.7570 3.6860 0.0000
O 0.0000 3.1000 3.1000
H 0.7570 3.6860 3.1000
H -0.7570 3.6860 3.1000
O 0.0000 3.1000 6.2000
H 0.7570 3.6860 6.2000
H -0.7570 3.6860 6.2000
O 0.0000 6.2000 0.0000
H 0.7570 6.7860 0.0000
H -0.7570 6.7860 0.0000
O 0.0000 6.2000 3.1000
H 0.7570 6.7860 3.1000
H -0.7570 6.7860 3.1000
O 0.0000 6.2000 6.2000
H 0.7570 6.7860 6.2000
H -0.7570 6.7860 6.2000
O 0.0000 9.3000 0.0000
H 0.7570 9.8860 0.0000
H -0.7570 9.8860 0.0000
O 0.0000 9.3000 3.1000
H 0.7570 9.8860 3.1000
H -0.7570 9.8860 3.1000
O 0.0000 9.3000 6.2000
H 0.7570 9.8860 6.2000
H -0.7570 9.8860 6.2000
O 3.1000 0.0000 0.0000
H 3.8570 0.5860 0.0000
H 2.3430 0.5860 0.0000
O 3.1000 0.0000 3.1000
H 3.8570 0.5860 3.1000
H 2.3430 0.5860 3.1000
O 3.1000 0.0000 6.2000
H 3.8570 0.5860 6.2000
H 2.3430 0.5860 6.2000
O 3.1000 3.1000 0.0000
H 3.8570 3.6860 0.0000
H 2.3430 3.6860 0.0000
O 3.1000 3.1000 3.1000
H 3.8570 3.6860 3.1000
H 2.3430 3.6860 3.1000
O 3.1000 3.1000 6.2000
H 3.8570 3.6860 6.2000
H 2.3430 3.6860 6.2000
O 3.1000 6.2000 0.0000
H 3.8570 6.7860 0.0000
H 2.3430 6.7860 0.0000
O 3.1000 6.2000 3.1000
H 3.8570 6.7860 3.1000
H 2.3430 6.7860 3.1000
O 3.1000 6.2000 6.2000
H 3.8570 6.7860 6.2000
H 2.3430 6.7860 6.2000
O 3.1000 9.3000 0.0000
H 3.8570 9.8860 0.0000
H 2.3430 9.8860 0.0000
O 3.1000 9.3000 3.1000
H 3.8570 9.8860 3.1000
H 2.3430 9.8860 3.1000
O 3.1000 9.3000 6.2000
H 3.8570 9.8860 6.2000
H 2.3430 9.8860 6.2000
O 6.2000 0.0000 0.0000
H 6.9570 0.5860 0.0000
H 5.4430 0.5860 0.0000
O 6.2000 0.0000 3.1000
H 6.9570 0.5860 3.1000
H 5.4430 0.5860 3.1000
O 6.2000 0.0000 6.2000
H 6.9570 0.5860 6.2000
H 5.4430 0.5860 6.2000
O 6.2000 3.1000 0.0000
H 6.9570 3.6860 0.0000
H 5.4430 3.6860 0.0000
O 6.2000 3.1000 3.1000
H 6.9570 3.6860 3.1000
H 5.4430 3.6860 3.1000
O 6.2000 3.1000 6.2000
H 6.9570 3.6860 6.2000
H 5.4430 3.6860 6.2000
O 6.2000 6.2000 0.0000
H 6.9570 6.7860 0.0000
H 5.4430 6.7860 0.0000
O 6.2000 6.2000 3.1000
H 6.9570 6.7860 3.1000
H 5.4430 6.7860 3.1000
O 6.2000 6.2000 6.2000
H 6.9570 6.7860 6.2000
H 5.4430 6.7860 6.2000
O 6.2000 9.3000 0.0000
H 6.9570 9.8860 0.0000
H 5.4430 9.8860 0.0000
O 6.2000 9.3000 3.1000
H 6.9570 9.8860 3.1000
H 5.4430 9.8860 3.1000
O 6.2000 9.3000 6.2000
H 6.9570 9.8860 6.2000
H 5.4430 9.8860 6.2000
O 9.3000 0.0000 0.0000
H 10.0570 0.5860 0.0000
H 8.5430 0.5860 0.0000
O 9.3000 0.0000 3.1000
H 10.0570 0.5860 3.1000
H 8.5430 0.5860 3.1000
O 9.3000 0.0000 6.2000
H 10.0570 0.5860 6.2000
H 8.5430 0.5860 6.2000
O 9.3000 3.1000 0.0000
H 10.0570 3.6860 0.0000
H 8.5430 3.6860 0.0000
O 9.3000 3.1000 3.1000
H 10.0570 3.6860 3.1000
H 8.5430 3.6860 3.1000
O 9.3000 3.1000 6.2000
H 10.0570 3.6860 6.2000
H 8.5430 3.6860 6.2000
O 9.3000 6.2000 0.0000
H 10.0570 6.7860 0.0000
H 8.5430 6.7860 0.0000
O 9.3000 6.2000 3.1000
H 10.0570 6.7860 3.1000
H 8.5430 6.7860 3.1000
O 9.3000 6.2000 6.2000
H 10.0570 6.7860 6.2000
H 8.5430 6.7860 6.2000
O 9.3000 9.3000 0.0000
H 10.0570 9.8860 0.0000
H 8.5430 9.8860 0.0000
O 9.3000 9.3000 3.1000
H 10.0570 9.8860 3.1000
H 8.5430 9.8860 3.1000
O 9.3000 9.3000 6.2000
H 10.0570 9.8860 6.2000
H 8.5430 9.8860 6.2000
